p wcnf 143 72 73 
1 35 81 0 
1 -8 55 0 
1 97 12 0 
1 -60 -71 0 
1 -124 -70 0 
1 108 129 0 
1 106 77 0 
1 27 35 0 
1 98 -14 0 
1 30 -36 0 
1 48 -41 0 
1 21 49 0 
1 123 -51 0 
1 111 -85 0 
1 -138 -136 0 
1 -91 -123 0 
1 7 -23 0 
1 -64 35 0 
1 -114 -57 0 
1 13 41 0 
1 -69 106 0 
1 -101 52 0 
1 -33 -127 0 
1 31 45 0 
1 -43 -61 0 
1 -126 46 0 
1 -128 68 0 
1 63 -139 0 
1 -24 31 0 
1 99 113 0 
1 25 93 0 
1 -79 -141 0 
1 -28 91 0 
1 -98 125 0 
1 50 -124 0 
1 61 -129 0 
1 -141 104 0 
1 -12 1 0 
1 14 98 0 
1 30 -82 0 
1 -16 2 0 
1 -53 139 0 
1 -21 -17 0 
1 -91 -129 0 
1 6 119 0 
1 23 -74 0 
1 -96 89 0 
1 -137 56 0 
1 41 78 0 
1 -118 3 0 
1 -136 71 0 
1 42 -17 0 
1 -15 11 0 
1 -21 -134 0 
1 103 -119 0 
1 142 -69 0 
1 126 -80 0 
1 76 26 0 
1 12 -97 0 
1 104 -56 0 
1 37 -54 0 
1 125 22 0 
1 44 -14 0 
1 114 99 0 
1 -1 135 0 
1 -65 109 0 
1 90 -131 0 
1 32 61 0 
1 -74 -16 0 
1 90 -12 0 
1 26 58 0 
1 -34 7 0 
